W=7;
H=4;

MAX_TIME=12;
MAX_TRACKS=12;

TARGET=(2,7);

TRAINS=[(2,1,RIGHT),(4,1,RIGHT),(2,3,RIGHT)];

INIT_POS=[
(2,1,STRAIGHT_RL),
(2,2,STRAIGHT_RL),
(2,3,STRAIGHT_RL),
(2,4,DSWITCH_T_D_L),
(2,7,STRAIGHT_RL),
(4,1,STRAIGHT_RL),
(4,3,STRAIGHT_RL),
(4,6,STRAIGHT_RL),
];
TUNNEL_PAIRS=[];

GATES=[];
ACTIVATIONS=[
(4,3,1),
];

DSWITCHES=[
(2,4,1),
];
STATIONS=[
  (4,6,3),
];
